NAME: ACTUAL_TOURS/amz1791
TYPE: TOUR
COMMENT: RouteID_bfb5bf1f-a32b-4cb2-b58d-8d4ed06561ae
DIMENSION: 110
TOUR_SECTION
74
40
8
52
102
99
60
32
86
68
110
61
6
4
105
89
95
17
47
100
93
73
66
26
85
92
42
63
24
9
72
33
64
65
84
54
3
10
103
58
38
87
81
109
106
13
94
22
23
91
29
35
30
12
108
20
18
70
97
62
41
39
45
31
5
49
11
104
21
16
56
51
25
78
90
37
55
19
83
27
7
50
1
15
75
67
59
34
53
43
28
46
14
107
77
57
98
101
96
80
44
36
2
88
48
71
82
79
76
69
-1
EOF
